% seed = 0

mint = 21;
% maxt = 70;

nActs = 32;
dur = [0,2,3,2,2,2,4,3,3,4,4,3,1,2,2,2,2,2,2,3,2,2,2,2,2,3,1,2,3,2,1,0];

nSkills = 15;
sreq = [| 0,0,0,0,0,0,0,0,0,0,0,0,0,0,0,
	| 0,0,0,1,1,1,0,0,0,0,0,1,1,0,0,
	| 0,0,0,1,1,2,0,0,2,0,0,0,0,0,0,
	| 0,1,0,0,0,2,0,0,0,0,1,0,1,1,0,
	| 0,0,0,0,0,0,0,0,1,0,0,0,1,0,0,
	| 0,0,0,0,1,2,1,0,0,0,0,1,0,1,0,
	| 0,0,0,0,0,2,0,0,0,0,1,0,0,0,0,
	| 0,0,0,0,0,1,1,0,0,0,0,0,1,0,0,
	| 0,0,0,2,1,0,0,0,0,0,0,0,1,0,0,
	| 0,0,0,1,0,0,0,0,0,0,0,0,0,0,0,
	| 0,0,0,0,0,2,0,0,1,0,0,0,0,0,0,
	| 0,0,0,0,0,0,0,0,0,0,0,1,0,0,0,
	| 0,0,1,0,0,2,0,0,0,1,0,1,0,1,0,
	| 1,0,0,0,1,0,0,0,0,0,1,0,1,0,0,
	| 0,0,0,0,1,1,0,2,0,0,0,0,0,0,0,
	| 0,0,0,1,0,0,0,0,0,0,0,0,0,0,0,
	| 0,0,0,0,1,1,0,0,1,0,0,0,0,0,0,
	| 0,0,0,0,0,0,0,0,0,0,0,1,0,0,0,
	| 0,0,1,0,0,1,0,0,1,0,0,0,0,0,0,
	| 0,0,0,0,1,1,0,1,0,0,0,1,0,0,0,
	| 0,0,0,0,1,0,0,0,0,0,0,0,1,0,1,
	| 0,0,0,1,0,1,1,0,0,0,1,1,0,1,0,
	| 0,0,0,1,1,1,0,0,0,0,0,1,1,0,0,
	| 0,0,0,1,0,1,0,0,0,0,0,1,0,0,0,
	| 0,0,0,0,0,0,0,0,0,0,1,0,0,0,0,
	| 0,0,0,0,0,1,0,1,1,0,0,0,0,0,0,
	| 0,0,0,0,1,1,0,0,1,0,0,1,1,1,0,
	| 0,0,0,1,0,2,0,0,0,0,1,1,1,0,0,
	| 0,0,0,0,1,1,0,1,0,1,0,0,0,0,0,
	| 0,0,0,0,0,2,0,0,0,0,1,0,0,2,0,
	| 0,0,0,0,0,1,0,0,0,0,0,0,0,0,0,
	| 0,0,0,0,0,0,0,0,0,0,0,0,0,0,0, |];

% SumOfsreq = 109;

nResources = 18;
mastery = [| false,false,false,false,false,false,true,true,true,false,true,true,false,false,false,
	| false,false,false,false,false,false,true,true,true,false,false,false,false,false,false,
	| false,false,false,true,true,true,false,false,false,false,false,false,false,false,true,
	| false,false,false,false,false,false,false,true,true,false,false,false,false,false,false,
	| false,false,false,false,true,true,false,true,true,false,false,true,false,false,false,
	| false,false,false,false,false,false,false,false,false,false,false,false,true,true,true,
	| false,true,true,false,true,true,false,false,false,false,false,false,false,false,false,
	| true,true,true,false,false,false,false,false,false,true,true,true,false,false,true,
	| false,false,false,false,false,false,false,false,true,true,true,true,false,false,false,
	| false,false,false,false,false,false,false,false,false,false,false,false,true,true,true,
	| false,false,false,false,false,true,false,false,false,false,false,false,false,false,false,
	| false,false,false,true,true,true,false,false,false,false,false,false,false,false,false,
	| false,false,false,true,true,true,false,false,false,false,false,false,false,false,false,
	| false,false,false,false,false,false,false,false,false,false,false,true,false,false,false,
	| false,false,false,false,false,false,false,false,true,false,false,false,true,true,true,
	| false,false,false,true,true,true,false,false,false,false,true,true,false,false,false,
	| false,false,false,true,true,true,false,false,false,false,false,false,false,false,false,
	| false,false,false,false,false,false,false,false,false,false,true,true,false,false,false, |];

nPrecs = 58;
pred = [1,1,1,2,2,2,3,3,4,4,4,5,5,6,7,7,7,8,9,9,9,10,10,11,11,11,12,12,12,13,13,13,14,14,14,15,15,16,17,18,19,19,19,20,20,21,21,22,22,23,24,25,26,27,28,29,30,31];
succ = [2,3,4,9,27,7,9,23,17,5,22,6,23,15,10,11,8,13,28,12,14,20,22,26,20,16,18,31,16,17,19,14,18,29,15,25,31,25,24,22,28,21,24,28,23,26,29,26,24,25,30,30,30,29,31,32,32,32];

nUnrels = 241;
unpred = [2,2,2,2,3,3,3,3,3,3,3,3,3,3,3,3,3,4,4,4,4,4,4,4,4,4,4,4,4,4,4,4,4,5,5,5,5,5,5,5,5,5,5,5,5,5,5,5,5,5,5,5,5,6,6,6,6,6,6,6,6,6,6,6,6,6,6,6,6,6,6,6,6,6,7,7,7,8,8,8,8,8,8,8,8,9,9,9,9,9,9,9,9,9,10,10,10,10,10,10,10,10,10,10,10,10,11,11,11,11,11,11,11,11,11,11,11,11,12,12,12,12,12,12,12,12,12,12,12,13,13,13,13,14,14,14,14,14,14,14,14,15,15,15,15,15,15,15,15,15,15,15,15,15,16,16,16,16,16,16,16,16,16,16,16,16,16,17,17,17,17,17,17,17,17,17,17,17,17,18,18,18,18,18,18,18,18,18,19,19,19,19,19,20,20,20,20,20,20,21,21,21,21,21,21,21,22,22,22,22,22,22,23,23,23,23,23,23,24,24,24,24,24,24,25,25,25,25,25,26,26,26,26,27,27,27,28,28,29,29,30];
unsucc = [3,4,5,6,4,5,6,7,8,10,11,13,17,19,20,21,27,7,8,9,10,11,12,13,14,16,18,19,20,21,27,28,29,7,8,9,10,11,12,13,14,16,17,18,19,20,21,22,24,26,27,28,29,7,8,9,10,11,12,13,14,16,17,18,19,20,21,22,23,24,26,27,28,29,9,12,27,9,10,11,12,16,20,23,27,10,11,13,17,19,20,21,23,27,11,12,13,14,15,16,17,18,19,21,27,29,12,13,14,15,17,18,19,21,22,24,27,29,13,14,15,17,19,20,21,23,27,28,29,16,20,23,27,16,17,19,20,21,23,27,28,16,17,18,19,20,21,22,23,24,26,27,28,29,17,18,19,20,21,22,23,24,26,27,28,29,31,18,19,20,21,22,23,25,26,27,28,29,31,19,20,21,23,25,27,28,29,31,20,22,23,25,27,21,22,24,26,27,29,22,23,24,25,27,28,31,23,25,27,28,29,31,24,26,27,28,29,31,25,26,27,28,29,31,26,27,28,29,31,27,28,29,31,28,30,31,29,30,30,31,31];

USEFUL_RES = [{},
	{1,3,5,6,7,8,9,10,11,12,13,14,15,16,17,18},
	{1,2,3,4,5,7,9,11,12,13,15,16,17},
	{1,3,5,6,7,8,9,10,11,12,13,15,16,17,18},
	{1,2,4,5,6,9,10,15},
	{1,2,3,5,6,7,8,9,10,11,12,13,14,15,16,17,18},
	{1,3,5,7,8,9,11,12,13,16,17,18},
	{1,2,3,5,6,7,10,11,12,13,15,16,17},
	{3,5,6,7,10,12,13,15,16,17},
	{3,12,13,16,17},
	{1,2,3,4,5,7,9,11,12,13,15,16,17},
	{1,5,8,9,14,16,18},
	{1,3,5,6,7,8,9,10,11,12,13,14,15,16,17,18},
	{1,3,5,6,7,8,9,10,12,13,15,16,17,18},
	{1,2,3,4,5,7,11,12,13,16,17},
	{3,12,13,16,17},
	{1,2,3,4,5,7,9,11,12,13,15,16,17},
	{1,5,8,9,14,16,18},
	{1,2,3,4,5,7,8,9,11,12,13,15,16,17},
	{1,2,3,4,5,7,8,9,11,12,13,14,16,17,18},
	{3,5,6,7,8,10,12,13,15,16,17},
	{1,2,3,5,6,7,8,9,10,11,12,13,14,15,16,17,18},
	{1,3,5,6,7,8,9,10,11,12,13,14,15,16,17,18},
	{1,3,5,7,8,9,11,12,13,14,16,17,18},
	{1,8,9,16,18},
	{1,2,3,4,5,7,9,11,12,13,15,16,17},
	{1,2,3,4,5,6,7,8,9,10,11,12,13,14,15,16,17,18},
	{1,3,5,6,7,8,9,10,11,12,13,14,15,16,17,18},
	{1,2,3,4,5,7,8,9,11,12,13,16,17},
	{1,3,5,6,7,8,9,10,11,12,13,15,16,17,18},
	{3,5,7,11,12,13,16,17},
	{}];

POTENTIAL_ACT = [{2,3,4,5,6,7,8,11,12,13,14,15,17,18,19,20,22,23,24,25,26,27,28,29,30},
	{3,5,6,8,11,15,17,19,20,22,26,27,29},
	{2,3,4,6,7,8,9,10,11,13,14,15,16,17,19,20,21,22,23,24,26,27,28,29,30,31},
	{3,5,11,15,17,19,20,26,27,29},
	{2,3,4,5,6,7,8,9,11,12,13,14,15,17,18,19,20,21,22,23,24,26,27,28,29,30,31},
	{2,4,5,6,8,9,13,14,21,22,23,27,28,30},
	{2,3,4,6,7,8,9,11,13,14,15,17,19,20,21,22,23,24,26,27,28,29,30,31},
	{2,4,6,7,12,13,14,18,19,20,21,22,23,24,25,27,28,29,30},
	{2,3,4,5,6,7,11,12,13,14,17,18,19,20,22,23,24,25,26,27,28,29,30},
	{2,4,5,6,8,9,13,14,21,22,23,27,28,30},
	{2,3,4,6,7,8,11,13,15,17,19,20,22,23,24,26,27,28,29,30,31},
	{2,3,4,6,7,8,9,10,11,13,14,15,16,17,19,20,21,22,23,24,26,27,28,29,30,31},
	{2,3,4,6,7,8,9,10,11,13,14,15,16,17,19,20,21,22,23,24,26,27,28,29,30,31},
	{2,6,12,13,18,20,22,23,24,27,28},
	{2,3,4,5,6,8,9,11,13,14,17,19,21,22,23,26,27,28,30},
	{2,3,4,6,7,8,9,10,11,12,13,14,15,16,17,18,19,20,21,22,23,24,25,26,27,28,29,30,31},
	{2,3,4,6,7,8,9,10,11,13,14,15,16,17,19,20,21,22,23,24,26,27,28,29,30,31},
	{2,4,6,7,12,13,14,18,20,22,23,24,25,27,28,30}];
